set VV := 0 1 2 3 4 5 6 7 8 9 10 11 12 13 14 15 16 17 18 19 20 ;
set VS := 0 1 2 3 4 5 6 7 8 9 10 11 12 13 14 15 16 17 18 19 20 21 22 23 24 25 26 27 28 29 30 31 32 33 34 35 36 37 38 39 40 41 42 43 44 45 ;
param cv := 
0 18
1 20
2 19
3 17
4 14
5 20
6 13
7 12
8 15
9 19
10 21
11 15
12 18
13 23
14 17
15 13
16 19
17 13
18 20
19 17
20 16
;
param cs := 
0 20
1 37
2 26
3 39
4 36
5 27
6 36
7 26
8 33
9 27
10 35
11 38
12 39
13 23
14 38
15 33
16 37
17 36
18 25
19 22
20 31
21 22
22 37
23 22
24 26
25 28
26 32
27 38
28 38
29 21
30 29
31 39
32 33
33 36
34 34
35 30
36 22
37 20
38 32
39 34
40 27
41 23
42 28
43 40
44 25
45 23
;
param bv:	 0 1 2 3 4 5 6 7 8 9 10 11 12 13 14 15 16 17 18 19 20 := 
		0 0 0 0 0 22 0 0 0 0 16 0 25 0 0 0 0 0 11 0 0 0 
		1 0 0 0 0 0 0 0 22 0 0 0 0 0 15 17 10 0 0 0 0 0 
		2 0 0 0 0 0 0 0 0 0 0 0 0 0 0 0 0 0 12 0 0 0 
		3 0 0 0 0 0 10 0 0 0 0 0 0 0 0 0 0 0 0 0 0 0 
		4 0 0 0 0 0 0 0 0 0 0 0 0 0 17 0 0 22 0 0 16 0 
		5 0 0 0 0 0 0 19 0 0 0 0 17 0 0 0 0 0 0 0 0 0 
		6 0 0 0 0 0 0 0 12 0 0 0 0 0 0 0 0 0 0 0 0 0 
		7 0 0 0 0 0 0 0 0 0 0 0 0 0 0 0 0 0 0 0 0 0 
		8 0 0 0 0 0 0 0 0 0 0 0 0 25 0 0 0 14 0 13 0 0 
		9 0 0 0 0 0 0 0 0 0 0 0 0 0 0 0 0 0 0 0 0 0 
		10 0 0 0 0 0 0 0 0 0 0 0 0 0 18 0 0 0 0 0 0 0 
		11 0 0 0 0 0 0 0 0 0 0 0 0 0 22 0 0 0 0 0 0 0 
		12 0 0 0 0 0 0 0 0 0 0 0 0 0 0 0 0 14 0 23 0 0 
		13 0 0 0 0 0 0 0 0 0 0 0 0 0 0 0 0 0 0 0 0 18 
		14 0 0 0 0 0 0 0 0 0 0 0 0 0 0 0 0 0 0 0 19 0 
		15 0 0 0 0 0 0 0 0 0 0 0 0 0 0 0 0 0 0 0 0 0 
		16 0 0 0 0 0 0 0 0 0 0 0 0 0 0 0 0 0 0 0 0 0 
		17 0 0 0 0 0 0 0 0 0 0 0 0 0 0 0 0 0 0 0 25 0 
		18 0 0 0 0 0 0 0 0 0 0 0 0 0 0 0 0 0 0 0 0 0 
		19 0 0 0 0 0 0 0 0 0 0 0 0 0 0 0 0 0 0 0 0 0 
		20 0 0 0 0 0 0 0 0 0 0 0 0 0 0 0 0 0 0 0 0 0 
;
param bs:	 0 1 2 3 4 5 6 7 8 9 10 11 12 13 14 15 16 17 18 19 20 21 22 23 24 25 26 27 28 29 30 31 32 33 34 35 36 37 38 39 40 41 42 43 44 45 := 
		0 0 0 0 0 0 0 0 32 0 0 0 0 0 32 0 0 0 29 0 0 0 0 0 0 0 0 0 0 0 20 0 40 0 31 0 0 34 0 0 38 25 0 24 0 0 35 
		1 0 0 0 0 0 0 0 0 0 0 0 0 0 0 0 0 0 0 0 25 0 0 0 0 0 0 0 0 0 0 0 0 32 22 0 0 0 0 0 0 0 30 0 0 23 0 
		2 0 0 0 0 0 0 0 0 0 0 0 0 0 0 0 0 0 0 0 0 0 0 0 0 0 0 21 22 0 0 0 0 0 0 0 0 0 0 0 0 36 0 40 0 0 39 
		3 0 0 0 0 0 0 0 0 0 0 0 0 0 0 0 0 0 0 20 25 39 0 0 0 0 0 0 0 0 0 25 0 0 0 0 40 0 0 0 0 0 23 37 0 0 0 
		4 0 0 0 0 0 0 0 0 0 26 0 0 0 0 0 0 30 0 0 0 0 0 0 0 37 0 0 0 0 0 0 40 36 0 0 0 0 0 0 0 0 0 0 0 38 0 
		5 0 0 0 0 0 0 0 0 0 0 0 0 0 0 0 0 22 0 20 23 0 0 20 0 30 0 0 0 0 0 0 28 0 0 0 0 0 0 0 0 0 0 0 22 0 0 
		6 0 0 0 0 0 0 0 0 0 0 0 0 0 0 0 29 0 0 0 0 0 0 0 0 0 0 0 0 0 0 0 0 0 0 0 37 29 0 0 0 0 0 0 0 0 0 
		7 32 0 0 0 0 0 0 0 0 0 0 0 0 0 0 0 0 0 0 0 0 0 26 0 24 0 0 0 0 0 0 0 0 0 0 0 0 0 0 0 26 0 0 0 0 0 
		8 0 0 0 0 0 0 0 0 0 0 0 0 0 0 0 29 0 0 0 0 0 26 0 36 0 0 0 22 0 0 0 0 0 0 26 0 34 0 0 0 35 0 0 0 0 0 
		9 0 0 0 0 26 0 0 0 0 0 0 0 0 0 0 0 0 0 20 0 0 0 0 0 0 0 0 0 0 0 0 0 0 0 0 0 0 0 0 0 0 0 0 29 0 0 
		10 0 0 0 0 0 0 0 0 0 0 0 0 0 0 0 0 0 0 0 0 0 0 32 0 0 0 24 0 0 0 0 0 0 0 21 0 0 0 0 0 0 0 0 0 0 34 
		11 0 0 0 0 0 0 0 0 0 0 0 0 0 0 0 0 0 0 0 0 20 0 0 0 0 36 0 0 20 0 0 0 0 0 0 0 0 0 0 0 38 0 0 0 0 32 
		12 0 0 0 0 0 0 0 0 0 0 0 0 0 0 0 0 0 0 0 0 0 0 29 0 0 0 0 38 0 0 0 0 0 0 0 0 0 23 0 0 0 0 0 0 0 26 
		13 32 0 0 0 0 0 0 0 0 0 0 0 0 0 0 34 0 24 0 0 0 0 21 30 0 0 0 0 0 0 0 0 38 0 0 29 0 0 0 0 0 0 28 0 0 0 
		14 0 0 0 0 0 0 0 0 0 0 0 0 0 0 0 0 0 28 32 0 0 33 0 0 0 0 0 0 0 0 0 0 0 34 0 0 0 0 0 0 28 0 0 37 0 0 
		15 0 0 0 0 0 0 29 0 29 0 0 0 0 34 0 0 0 37 0 0 0 0 32 0 32 0 0 0 0 0 0 0 0 0 29 32 0 0 0 0 31 0 0 0 0 0 
		16 0 0 0 0 30 22 0 0 0 0 0 0 0 0 0 0 0 0 20 0 0 0 0 0 0 0 0 0 0 0 0 0 0 0 0 0 0 0 0 0 0 0 0 35 0 0 
		17 29 0 0 0 0 0 0 0 0 0 0 0 0 24 28 37 0 0 0 0 0 0 0 27 20 0 0 0 0 0 31 0 35 0 0 0 0 0 0 0 0 0 35 39 21 0 
		18 0 0 0 20 0 20 0 0 0 20 0 0 0 0 32 0 20 0 0 0 0 27 0 0 0 0 0 0 0 0 27 38 0 0 0 0 0 0 0 0 29 0 0 0 0 0 
		19 0 25 0 25 0 23 0 0 0 0 0 0 0 0 0 0 0 0 0 0 0 0 0 0 0 0 0 0 0 0 0 0 0 34 0 0 31 0 0 0 0 0 0 31 0 0 
		20 0 0 0 39 0 0 0 0 0 0 0 20 0 0 0 0 0 0 0 0 0 0 0 0 0 0 0 0 0 0 0 0 40 0 0 0 0 0 0 0 22 0 0 0 0 0 
		21 0 0 0 0 0 0 0 0 26 0 0 0 0 0 33 0 0 0 27 0 0 0 24 0 0 0 0 0 0 0 0 0 0 39 0 0 35 0 0 0 28 0 0 0 0 0 
		22 0 0 0 0 0 20 0 26 0 0 32 0 29 21 0 32 0 0 0 0 0 24 0 0 0 0 0 0 0 0 0 0 0 0 0 0 0 0 0 0 0 0 0 0 0 0 
		23 0 0 0 0 0 0 0 0 36 0 0 0 0 30 0 0 0 27 0 0 0 0 0 0 33 0 0 0 0 0 0 0 0 0 0 40 0 0 0 0 0 0 0 0 0 0 
		24 0 0 0 0 37 30 0 24 0 0 0 0 0 0 0 32 0 20 0 0 0 0 0 33 0 0 0 33 0 0 0 24 38 0 0 0 21 0 0 40 0 0 0 0 0 0 
		25 0 0 0 0 0 0 0 0 0 0 0 36 0 0 0 0 0 0 0 0 0 0 0 0 0 0 0 0 0 0 0 0 0 0 0 0 0 0 0 0 0 0 22 0 0 21 
		26 0 0 21 0 0 0 0 0 0 0 24 0 0 0 0 0 0 0 0 0 0 0 0 0 0 0 0 0 0 0 0 0 0 0 0 0 0 0 0 22 0 0 38 0 37 0 
		27 0 0 22 0 0 0 0 0 22 0 0 0 38 0 0 0 0 0 0 0 0 0 0 0 33 0 0 0 0 35 0 0 0 0 0 0 0 0 0 0 0 0 0 0 0 0 
		28 0 0 0 0 0 0 0 0 0 0 0 20 0 0 0 0 0 0 0 0 0 0 0 0 0 0 0 0 0 0 0 0 24 0 26 0 0 0 0 0 0 0 0 0 0 0 
		29 20 0 0 0 0 0 0 0 0 0 0 0 0 0 0 0 0 0 0 0 0 0 0 0 0 0 0 35 0 0 0 0 0 0 0 24 0 0 0 0 0 0 0 0 0 0 
		30 0 0 0 25 0 0 0 0 0 0 0 0 0 0 0 0 0 31 27 0 0 0 0 0 0 0 0 0 0 0 0 0 0 0 0 0 0 0 0 0 0 0 0 20 0 0 
		31 40 0 0 0 40 28 0 0 0 0 0 0 0 0 0 0 0 0 38 0 0 0 0 0 24 0 0 0 0 0 0 0 0 26 0 20 0 0 0 0 0 0 0 0 0 0 
		32 0 32 0 0 36 0 0 0 0 0 0 0 0 38 0 0 0 35 0 0 40 0 0 0 38 0 0 0 24 0 0 0 0 0 0 30 0 0 0 0 0 0 0 0 0 0 
		33 31 22 0 0 0 0 0 0 0 0 0 0 0 0 34 0 0 0 0 34 0 39 0 0 0 0 0 0 0 0 0 26 0 0 0 0 0 0 27 0 0 0 0 0 0 0 
		34 0 0 0 0 0 0 0 0 26 0 21 0 0 0 0 29 0 0 0 0 0 0 0 0 0 0 0 0 26 0 0 0 0 0 0 0 0 0 0 0 0 0 0 24 0 37 
		35 0 0 0 40 0 0 37 0 0 0 0 0 0 29 0 32 0 0 0 0 0 0 0 40 0 0 0 0 0 24 0 20 30 0 0 0 0 0 0 0 0 0 0 0 34 0 
		36 34 0 0 0 0 0 29 0 34 0 0 0 0 0 0 0 0 0 0 31 0 35 0 0 21 0 0 0 0 0 0 0 0 0 0 0 0 0 0 0 0 0 0 31 0 0 
		37 0 0 0 0 0 0 0 0 0 0 0 0 23 0 0 0 0 0 0 0 0 0 0 0 0 0 0 0 0 0 0 0 0 0 0 0 0 0 0 21 0 0 0 0 0 0 
		38 0 0 0 0 0 0 0 0 0 0 0 0 0 0 0 0 0 0 0 0 0 0 0 0 0 0 0 0 0 0 0 0 0 27 0 0 0 0 0 0 0 22 0 0 0 0 
		39 38 0 0 0 0 0 0 0 0 0 0 0 0 0 0 0 0 0 0 0 0 0 0 0 40 0 22 0 0 0 0 0 0 0 0 0 0 21 0 0 21 0 0 27 0 0 
		40 25 0 36 0 0 0 0 26 35 0 0 38 0 0 28 31 0 0 29 0 22 28 0 0 0 0 0 0 0 0 0 0 0 0 0 0 0 0 0 21 0 0 38 0 0 0 
		41 0 30 0 23 0 0 0 0 0 0 0 0 0 0 0 0 0 0 0 0 0 0 0 0 0 0 0 0 0 0 0 0 0 0 0 0 0 0 22 0 0 0 0 26 0 0 
		42 24 0 40 37 0 0 0 0 0 0 0 0 0 28 0 0 0 35 0 0 0 0 0 0 0 22 38 0 0 0 0 0 0 0 0 0 0 0 0 0 38 0 0 0 0 0 
		43 0 0 0 0 0 22 0 0 0 29 0 0 0 0 37 0 35 39 0 31 0 0 0 0 0 0 0 0 0 0 20 0 0 0 24 0 31 0 0 27 0 26 0 0 0 0 
		44 0 23 0 0 38 0 0 0 0 0 0 0 0 0 0 0 0 21 0 0 0 0 0 0 0 0 37 0 0 0 0 0 0 0 0 34 0 0 0 0 0 0 0 0 0 0 
		45 35 0 39 0 0 0 0 0 0 0 34 32 26 0 0 0 0 0 0 0 0 0 0 0 0 21 0 0 0 0 0 0 0 0 37 0 0 0 0 0 0 0 0 0 0 0 
;
